(set-info :smt-lib-version 2.6)
(set-logic UF)
(set-info :source |Benchmarks from the paper: "Extending Sledgehammer with SMT Solvers" by Jasmin Blanchette, Sascha Bohme, and Lawrence C. Paulson, CADE 2011.  Translated to SMT2 by Andrew Reynolds and Morgan Deters.|)
(set-info :category "industrial")
(set-info :status sat)
(declare-sort S1 0)
(declare-sort S2 0)
(declare-sort S3 0)
(declare-sort S4 0)
(declare-sort S5 0)
(declare-sort S6 0)
(declare-sort S7 0)
(declare-sort S8 0)
(declare-sort S9 0)
(declare-sort S10 0)
(declare-sort S11 0)
(declare-sort S12 0)
(declare-sort S13 0)
(declare-sort S14 0)
(declare-sort S15 0)
(declare-sort S16 0)
(declare-sort S17 0)
(declare-sort S18 0)
(declare-sort S19 0)
(declare-sort S20 0)
(declare-sort S21 0)
(declare-sort S22 0)
(declare-sort S23 0)
(declare-sort S24 0)
(declare-sort S25 0)
(declare-sort S26 0)
(declare-sort S27 0)
(declare-sort S28 0)
(declare-sort S29 0)
(declare-sort S30 0)
(declare-sort S31 0)
(declare-sort S32 0)
(declare-sort S33 0)
(declare-sort S34 0)
(declare-sort S35 0)
(declare-sort S36 0)
(declare-sort S37 0)
(declare-sort S38 0)
(declare-sort S39 0)
(declare-sort S40 0)
(declare-sort S41 0)
(declare-sort S42 0)
(declare-sort S43 0)
(declare-sort S44 0)
(declare-sort S45 0)
(declare-sort S46 0)
(declare-fun f1 () S1)
(declare-fun f2 () S1)
(declare-fun f3 (S3 S2) S4)
(declare-fun f4 () S3)
(declare-fun f5 (S5 S6) S4)
(declare-fun f6 () S5)
(declare-fun f7 (S7 S2) S6)
(declare-fun f8 () S7)
(declare-fun f9 (S8 S2) S2)
(declare-fun f10 () S8)
(declare-fun f11 () S8)
(declare-fun f12 () S3)
(declare-fun f13 () S5)
(declare-fun f14 (S9 S8) S3)
(declare-fun f15 () S9)
(declare-fun f16 (S10 S3) S9)
(declare-fun f17 () S10)
(declare-fun f18 (S11 S7) S3)
(declare-fun f19 (S12 S5) S11)
(declare-fun f20 () S12)
(declare-fun f21 () S9)
(declare-fun f22 (S13 S4) S6)
(declare-fun f23 (S14 S6) S13)
(declare-fun f24 () S14)
(declare-fun f25 (S15 S6) S6)
(declare-fun f26 (S16 S4) S15)
(declare-fun f27 () S16)
(declare-fun f28 (S17 S4) S4)
(declare-fun f29 (S18 S4) S17)
(declare-fun f30 () S18)
(declare-fun f31 () S18)
(declare-fun f32 (S19 S3) S7)
(declare-fun f33 () S19)
(declare-fun f34 () S13)
(declare-fun f35 (S20 S3) S3)
(declare-fun f36 () S20)
(declare-fun f37 () S17)
(declare-fun f38 () S11)
(declare-fun f39 () S11)
(declare-fun f40 () S9)
(declare-fun f41 (S21 S14) S16)
(declare-fun f42 () S21)
(declare-fun f43 (S22 S16) S14)
(declare-fun f44 () S22)
(declare-fun f45 (S23 S18) S18)
(declare-fun f46 () S23)
(declare-fun f47 (S24 S7) S7)
(declare-fun f48 (S25 S3) S24)
(declare-fun f49 () S25)
(declare-fun f50 (S26 S3) S20)
(declare-fun f51 () S26)
(declare-fun f52 (S27 S6) S7)
(declare-fun f53 (S28 S3) S27)
(declare-fun f54 () S28)
(declare-fun f55 (S29 S4) S3)
(declare-fun f56 (S30 S3) S29)
(declare-fun f57 () S30)
(declare-fun f58 (S31 S4) S7)
(declare-fun f59 (S32 S7) S31)
(declare-fun f60 () S32)
(declare-fun f61 () S30)
(declare-fun f62 (S33 S15) S24)
(declare-fun f63 () S33)
(declare-fun f64 (S34 S13) S19)
(declare-fun f65 () S34)
(declare-fun f66 (S35 S17) S20)
(declare-fun f67 () S35)
(declare-fun f68 () S10)
(declare-fun f69 (S36 S8) S8)
(declare-fun f70 (S37 S8) S36)
(declare-fun f71 () S37)
(declare-fun f72 (S38 S7) S19)
(declare-fun f73 (S39 S14) S38)
(declare-fun f74 () S39)
(declare-fun f75 (S40 S16) S25)
(declare-fun f76 () S40)
(declare-fun f77 (S41 S18) S26)
(declare-fun f78 () S41)
(declare-fun f79 () S27)
(declare-fun f80 (S42 S4) S5)
(declare-fun f81 () S42)
(declare-fun f82 () S29)
(declare-fun f83 (S43 S2) S8)
(declare-fun f84 () S43)
(declare-fun f85 (S3) S1)
(declare-fun f86 (S8) S1)
(declare-fun f87 (S3) S1)
(declare-fun f88 (S7) S1)
(declare-fun f89 (S4 S4) S1)
(declare-fun f90 () S5)
(declare-fun f91 () S4)
(declare-fun f92 (S15) S1)
(declare-fun f93 (S13) S1)
(declare-fun f94 (S17) S1)
(declare-fun f95 (S14) S1)
(declare-fun f96 (S18) S1)
(declare-fun f97 (S16) S1)
(declare-fun f98 (S44 S2) S1)
(declare-fun f99 (S2) S44)
(declare-fun f100 (S8) S1)
(declare-fun f101 (S45 S8) S7)
(declare-fun f102 (S46 S7) S45)
(declare-fun f103 () S46)
(declare-fun f104 () S2)
(declare-fun f105 () S4)
(declare-fun f106 () S6)
(declare-fun f107 () S17)
(declare-fun f108 (S3) S1)
(declare-fun f109 (S7) S1)
(declare-fun f110 (S8) S1)
(declare-fun f111 (S3) S1)
(declare-fun f112 (S3) S1)
(declare-fun f113 (S8) S1)
(assert (not (= f1 f2)))
(assert (forall ((?v0 S2)) (= (f3 f4 ?v0) (f5 f6 (f7 f8 (f9 f10 (f9 f11 ?v0)))))))
(assert (forall ((?v0 S2)) (= (f3 f12 ?v0) (f5 f13 (f7 f8 (f9 f10 ?v0))))))
(assert (forall ((?v0 S8) (?v1 S2)) (= (f3 (f14 f15 ?v0) ?v1) (f3 (f14 (f16 f17 (f18 (f19 f20 f6) f8)) f10) (f9 ?v0 ?v1)))))
(assert (forall ((?v0 S8) (?v1 S2)) (= (f3 (f14 f21 ?v0) ?v1) (f3 (f18 (f19 f20 f13) f8) (f9 ?v0 ?v1)))))
(assert (forall ((?v0 S6) (?v1 S4)) (= (f22 (f23 f24 ?v0) ?v1) (f25 (f26 f27 ?v1) ?v0))))
(assert (forall ((?v0 S4) (?v1 S4)) (= (f28 (f29 f30 ?v0) ?v1) (f28 (f29 f31 ?v1) ?v0))))
(assert (forall ((?v0 S3) (?v1 S2)) (= (f7 (f32 f33 ?v0) ?v1) (f22 f34 (f3 ?v0 ?v1)))))
(assert (forall ((?v0 S3) (?v1 S2)) (= (f3 (f35 f36 ?v0) ?v1) (f28 f37 (f3 ?v0 ?v1)))))
(assert (forall ((?v0 S7) (?v1 S2)) (= (f3 (f18 f38 ?v0) ?v1) (f5 f13 (f7 ?v0 ?v1)))))
(assert (forall ((?v0 S7) (?v1 S2)) (= (f3 (f18 f39 ?v0) ?v1) (f5 f6 (f7 ?v0 ?v1)))))
(assert (forall ((?v0 S8) (?v1 S2)) (= (f3 (f14 f40 ?v0) ?v1) (f5 f6 (f7 f8 (f9 f10 (f9 ?v0 ?v1)))))))
(assert (forall ((?v0 S14) (?v1 S4) (?v2 S6)) (= (f25 (f26 (f41 f42 ?v0) ?v1) ?v2) (f22 (f23 ?v0 ?v2) ?v1))))
(assert (forall ((?v0 S16) (?v1 S6) (?v2 S4)) (= (f22 (f23 (f43 f44 ?v0) ?v1) ?v2) (f25 (f26 ?v0 ?v2) ?v1))))
(assert (forall ((?v0 S18) (?v1 S4) (?v2 S4)) (= (f28 (f29 (f45 f46 ?v0) ?v1) ?v2) (f28 (f29 ?v0 ?v2) ?v1))))
(assert (forall ((?v0 S3) (?v1 S7) (?v2 S2)) (= (f7 (f47 (f48 f49 ?v0) ?v1) ?v2) (f25 (f26 f27 (f3 ?v0 ?v2)) (f7 ?v1 ?v2)))))
(assert (forall ((?v0 S3) (?v1 S3) (?v2 S2)) (= (f3 (f35 (f50 f51 ?v0) ?v1) ?v2) (f28 (f29 f31 (f3 ?v0 ?v2)) (f3 ?v1 ?v2)))))
(assert (forall ((?v0 S3) (?v1 S6) (?v2 S2)) (= (f7 (f52 (f53 f54 ?v0) ?v1) ?v2) (f25 (f26 f27 (f3 ?v0 ?v2)) ?v1))))
(assert (forall ((?v0 S3) (?v1 S4) (?v2 S2)) (= (f3 (f55 (f56 f57 ?v0) ?v1) ?v2) (f28 (f29 f31 (f3 ?v0 ?v2)) ?v1))))
(assert (forall ((?v0 S7) (?v1 S4) (?v2 S2)) (= (f7 (f58 (f59 f60 ?v0) ?v1) ?v2) (f25 (f26 f27 ?v1) (f7 ?v0 ?v2)))))
(assert (forall ((?v0 S3) (?v1 S4) (?v2 S2)) (= (f3 (f55 (f56 f61 ?v0) ?v1) ?v2) (f28 (f29 f31 ?v1) (f3 ?v0 ?v2)))))
(assert (forall ((?v0 S15) (?v1 S7) (?v2 S2)) (= (f7 (f47 (f62 f63 ?v0) ?v1) ?v2) (f25 ?v0 (f7 ?v1 ?v2)))))
(assert (forall ((?v0 S13) (?v1 S3) (?v2 S2)) (= (f7 (f32 (f64 f65 ?v0) ?v1) ?v2) (f22 ?v0 (f3 ?v1 ?v2)))))
(assert (forall ((?v0 S17) (?v1 S3) (?v2 S2)) (= (f3 (f35 (f66 f67 ?v0) ?v1) ?v2) (f28 ?v0 (f3 ?v1 ?v2)))))
(assert (forall ((?v0 S3) (?v1 S8) (?v2 S2)) (= (f3 (f14 (f16 f68 ?v0) ?v1) ?v2) (f3 ?v0 (f9 ?v1 ?v2)))))
(assert (forall ((?v0 S8) (?v1 S8) (?v2 S2)) (= (f9 (f69 (f70 f71 ?v0) ?v1) ?v2) (f9 ?v0 (f9 ?v1 ?v2)))))
(assert (forall ((?v0 S14) (?v1 S7) (?v2 S3) (?v3 S2)) (= (f7 (f32 (f72 (f73 f74 ?v0) ?v1) ?v2) ?v3) (f22 (f23 ?v0 (f7 ?v1 ?v3)) (f3 ?v2 ?v3)))))
(assert (forall ((?v0 S16) (?v1 S3) (?v2 S7) (?v3 S2)) (= (f7 (f47 (f48 (f75 f76 ?v0) ?v1) ?v2) ?v3) (f25 (f26 ?v0 (f3 ?v1 ?v3)) (f7 ?v2 ?v3)))))
(assert (forall ((?v0 S18) (?v1 S3) (?v2 S3) (?v3 S2)) (= (f3 (f35 (f50 (f77 f78 ?v0) ?v1) ?v2) ?v3) (f28 (f29 ?v0 (f3 ?v1 ?v3)) (f3 ?v2 ?v3)))))
(assert (forall ((?v0 S6) (?v1 S2)) (= (f7 (f52 f79 ?v0) ?v1) ?v0)))
(assert (forall ((?v0 S4) (?v1 S6)) (= (f5 (f80 f81 ?v0) ?v1) ?v0)))
(assert (forall ((?v0 S4) (?v1 S2)) (= (f3 (f55 f82 ?v0) ?v1) ?v0)))
(assert (forall ((?v0 S2) (?v1 S2)) (= (f9 (f83 f84 ?v0) ?v1) ?v0)))
(assert (not (= (f85 f4) f1)))
(assert (= (f86 f10) f1))
(assert (= (f86 f11) f1))
(assert (= (f87 f4) f1))
(assert (= (f85 f12) f1))
(assert (= (f87 f12) f1))
(assert (=> (forall ((?v0 S8)) (=> (= (f86 ?v0) f1) (=> (= (f87 (f14 f40 ?v0)) f1) false))) false))
(assert (forall ((?v0 S6)) (= (f88 (f52 f79 ?v0)) f1)))
(assert (forall ((?v0 S4)) (= (f85 (f55 f82 ?v0)) f1)))
(assert (forall ((?v0 S7)) (=> (= (f88 ?v0) f1) (= (f85 (f18 f39 ?v0)) f1))))
(assert (forall ((?v0 S3)) (=> (= (f85 ?v0) f1) (= (f88 (f32 f33 ?v0)) f1))))
(assert (forall ((?v0 S3)) (=> (= (f85 ?v0) f1) (= (f85 (f35 f36 ?v0)) f1))))
(assert (forall ((?v0 S3) (?v1 S6)) (=> (= (f85 ?v0) f1) (= (f88 (f52 (f53 f54 ?v0) ?v1)) f1))))
(assert (forall ((?v0 S3) (?v1 S4)) (=> (= (f85 ?v0) f1) (= (f85 (f55 (f56 f57 ?v0) ?v1)) f1))))
(assert (forall ((?v0 S3) (?v1 S7)) (=> (= (f85 ?v0) f1) (=> (= (f88 ?v1) f1) (= (f88 (f47 (f48 f49 ?v0) ?v1)) f1)))))
(assert (forall ((?v0 S3) (?v1 S3)) (=> (= (f85 ?v0) f1) (=> (= (f85 ?v1) f1) (= (f85 (f35 (f50 f51 ?v0) ?v1)) f1)))))
(assert (exists ((?v0 S8)) (and (= (f86 ?v0) f1) (= (f87 (f14 f15 ?v0)) f1))))
(assert (forall ((?v0 S2)) (= (f89 (f5 f90 (f7 f8 ?v0)) f91) f1)))
(assert (forall ((?v0 S15) (?v1 S7)) (=> (= (f92 ?v0) f1) (=> (= (f88 ?v1) f1) (= (f88 (f47 (f62 f63 ?v0) ?v1)) f1)))))
(assert (forall ((?v0 S13) (?v1 S3)) (=> (= (f93 ?v0) f1) (=> (= (f85 ?v1) f1) (= (f88 (f32 (f64 f65 ?v0) ?v1)) f1)))))
(assert (forall ((?v0 S17) (?v1 S3)) (=> (= (f94 ?v0) f1) (=> (= (f85 ?v1) f1) (= (f85 (f35 (f66 f67 ?v0) ?v1)) f1)))))
(assert (forall ((?v0 S14) (?v1 S7) (?v2 S3)) (=> (= (f95 ?v0) f1) (=> (= (f88 ?v1) f1) (=> (= (f85 ?v2) f1) (= (f88 (f32 (f72 (f73 f74 ?v0) ?v1) ?v2)) f1))))))
(assert (forall ((?v0 S18) (?v1 S3) (?v2 S3)) (=> (= (f96 ?v0) f1) (=> (= (f85 ?v1) f1) (=> (= (f85 ?v2) f1) (= (f85 (f35 (f50 (f77 f78 ?v0) ?v1) ?v2)) f1))))))
(assert (forall ((?v0 S16) (?v1 S3) (?v2 S7)) (=> (= (f97 ?v0) f1) (=> (= (f85 ?v1) f1) (=> (= (f88 ?v2) f1) (= (f88 (f47 (f48 (f75 f76 ?v0) ?v1) ?v2)) f1))))))
(assert (exists ((?v0 S8)) (and (= (f86 ?v0) f1) (= (f87 (f14 f21 ?v0)) f1))))
(assert (forall ((?v0 S6)) (= (f89 (f5 f13 ?v0) (f5 f90 ?v0)) f1)))
(assert (forall ((?v0 S3)) (= (= (f87 ?v0) f1) (or (forall ((?v1 S2) (?v2 S2)) (=> (= (f98 (f99 ?v1) ?v2) f1) (= (f89 (f3 ?v0 ?v1) (f3 ?v0 ?v2)) f1))) (forall ((?v1 S2) (?v2 S2)) (=> (= (f98 (f99 ?v1) ?v2) f1) (= (f89 (f3 ?v0 ?v2) (f3 ?v0 ?v1)) f1)))))))
(assert (forall ((?v0 S8)) (= (= (f100 ?v0) f1) (or (forall ((?v1 S2) (?v2 S2)) (=> (= (f98 (f99 ?v1) ?v2) f1) (= (f98 (f99 (f9 ?v0 ?v1)) (f9 ?v0 ?v2)) f1))) (forall ((?v1 S2) (?v2 S2)) (=> (= (f98 (f99 ?v1) ?v2) f1) (= (f98 (f99 (f9 ?v0 ?v2)) (f9 ?v0 ?v1)) f1)))))))
(assert (forall ((?v0 S4)) (= (f5 f13 (f22 f34 ?v0)) ?v0)))
(assert (forall ((?v0 S4) (?v1 S6)) (= (f5 f6 (f25 (f26 f27 ?v0) ?v1)) (f28 (f29 f31 ?v0) (f5 f6 ?v1)))))
(assert (forall ((?v0 S4) (?v1 S6)) (= (f5 f13 (f25 (f26 f27 ?v0) ?v1)) (f28 (f29 f31 ?v0) (f5 f13 ?v1)))))
(assert (forall ((?v0 S3) (?v1 S8)) (=> (= (f85 ?v0) f1) (=> (= (f86 ?v1) f1) (= (f85 (f14 (f16 f17 ?v0) ?v1)) f1)))))
(assert (forall ((?v0 S7) (?v1 S8)) (=> (= (f88 ?v0) f1) (=> (= (f86 ?v1) f1) (= (f88 (f101 (f102 f103 ?v0) ?v1)) f1)))))
(assert (forall ((?v0 S7)) (=> (= (f88 ?v0) f1) (= (f85 (f18 f38 ?v0)) f1))))
(assert (forall ((?v0 S6) (?v1 S6)) (=> (= (f5 f13 ?v0) (f5 f13 ?v1)) (=> (= (f5 f6 ?v0) (f5 f6 ?v1)) (= ?v0 ?v1)))))
(assert (forall ((?v0 S6) (?v1 S6)) (= (= ?v0 ?v1) (and (= (f5 f13 ?v0) (f5 f13 ?v1)) (= (f5 f6 ?v0) (f5 f6 ?v1))))))
(assert (forall ((?v0 S7) (?v1 S4)) (=> (= (f88 ?v0) f1) (= (f88 (f58 (f59 f60 ?v0) ?v1)) f1))))
(assert (forall ((?v0 S3) (?v1 S4)) (=> (= (f85 ?v0) f1) (= (f85 (f55 (f56 f61 ?v0) ?v1)) f1))))
(assert (= (f89 (f5 f90 (f7 f8 f104)) f91) f1))
(assert (= (f89 f105 f91) f1))
(assert (forall ((?v0 S3)) (exists ((?v1 S8)) (and (= (f86 ?v1) f1) (= (f87 (f14 (f16 f68 ?v0) ?v1)) f1)))))
(assert (forall ((?v0 S8)) (exists ((?v1 S8)) (and (= (f86 ?v1) f1) (= (f100 (f69 (f70 f71 ?v0) ?v1)) f1)))))
(assert (forall ((?v0 S14) (?v1 S6)) (=> (= (f95 ?v0) f1) (= (f93 (f23 ?v0 ?v1)) f1))))
(assert (forall ((?v0 S18) (?v1 S4)) (=> (= (f96 ?v0) f1) (= (f94 (f29 ?v0 ?v1)) f1))))
(assert (forall ((?v0 S16) (?v1 S4)) (=> (= (f97 ?v0) f1) (= (f92 (f26 ?v0 ?v1)) f1))))
(assert (forall ((?v0 S14) (?v1 S4)) (=> (= (f95 ?v0) f1) (= (f92 (f26 (f41 f42 ?v0) ?v1)) f1))))
(assert (forall ((?v0 S18) (?v1 S4)) (=> (= (f96 ?v0) f1) (= (f94 (f29 (f45 f46 ?v0) ?v1)) f1))))
(assert (forall ((?v0 S16) (?v1 S6)) (=> (= (f97 ?v0) f1) (= (f93 (f23 (f43 f44 ?v0) ?v1)) f1))))
(assert (forall ((?v0 S4)) (= (f94 (f29 f31 ?v0)) f1)))
(assert (forall ((?v0 S4)) (= (f92 (f26 f27 ?v0)) f1)))
(assert (forall ((?v0 S3)) (=> (forall ((?v1 S2) (?v2 S2)) (=> (= (f98 (f99 ?v1) ?v2) f1) (= (f89 (f3 ?v0 ?v2) (f3 ?v0 ?v1)) f1))) (= (f87 ?v0) f1))))
(assert (forall ((?v0 S8)) (=> (forall ((?v1 S2) (?v2 S2)) (=> (= (f98 (f99 ?v1) ?v2) f1) (= (f98 (f99 (f9 ?v0 ?v2)) (f9 ?v0 ?v1)) f1))) (= (f100 ?v0) f1))))
(assert (forall ((?v0 S3)) (=> (forall ((?v1 S2) (?v2 S2)) (=> (= (f98 (f99 ?v1) ?v2) f1) (= (f89 (f3 ?v0 ?v1) (f3 ?v0 ?v2)) f1))) (= (f87 ?v0) f1))))
(assert (forall ((?v0 S8)) (=> (forall ((?v1 S2) (?v2 S2)) (=> (= (f98 (f99 ?v1) ?v2) f1) (= (f98 (f99 (f9 ?v0 ?v1)) (f9 ?v0 ?v2)) f1))) (= (f100 ?v0) f1))))
(assert (forall ((?v0 S2)) (= (f98 (f99 ?v0) ?v0) f1)))
(assert (forall ((?v0 S4)) (= (f89 ?v0 ?v0) f1)))
(assert (forall ((?v0 S17) (?v1 S4) (?v2 S4)) (let ((?v_0 (f29 f31 ?v1))) (=> (= (f94 ?v0) f1) (= (f28 ?v0 (f28 ?v_0 ?v2)) (f28 ?v_0 (f28 ?v0 ?v2)))))))
(assert (forall ((?v0 S15) (?v1 S4) (?v2 S6)) (let ((?v_0 (f26 f27 ?v1))) (=> (= (f92 ?v0) f1) (= (f25 ?v0 (f25 ?v_0 ?v2)) (f25 ?v_0 (f25 ?v0 ?v2)))))))
(assert (forall ((?v0 S13) (?v1 S4) (?v2 S4)) (=> (= (f93 ?v0) f1) (= (f22 ?v0 (f28 (f29 f31 ?v1) ?v2)) (f25 (f26 f27 ?v1) (f22 ?v0 ?v2))))))
(assert (= (f22 f34 f105) f106))
(assert (= (f28 f37 f105) f105))
(assert (= (f22 f34 f105) f106))
(assert (= (f28 f37 f105) f105))
(assert (= (f5 f90 f106) f105))
(assert (= (f28 f107 f105) f105))
(assert (forall ((?v0 S6)) (= (f25 (f26 f27 f105) ?v0) f106)))
(assert (forall ((?v0 S4)) (= (f28 (f29 f31 f105) ?v0) f105)))
(assert (forall ((?v0 S6)) (= (f25 (f26 f27 f105) ?v0) f106)))
(assert (forall ((?v0 S4)) (= (f28 (f29 f31 f105) ?v0) f105)))
(assert (forall ((?v0 S4)) (= (= (f22 f34 ?v0) f106) (= ?v0 f105))))
(assert (forall ((?v0 S4)) (= (= (f28 f37 ?v0) f105) (= ?v0 f105))))
(assert (forall ((?v0 S6)) (= (= (f5 f90 ?v0) f105) (= ?v0 f106))))
(assert (forall ((?v0 S4)) (= (= (f28 f107 ?v0) f105) (= ?v0 f105))))
(assert (forall ((?v0 S4) (?v1 S6)) (= (= (f25 (f26 f27 ?v0) ?v1) f106) (or (= ?v0 f105) (= ?v1 f106)))))
(assert (forall ((?v0 S4) (?v1 S4)) (= (= (f28 (f29 f31 ?v0) ?v1) f105) (or (= ?v0 f105) (= ?v1 f105)))))
(assert (forall ((?v0 S6) (?v1 S4) (?v2 S4)) (=> (not (= ?v0 f106)) (=> (= (f25 (f26 f27 ?v1) ?v0) (f25 (f26 f27 ?v2) ?v0)) (= ?v1 ?v2)))))
(assert (forall ((?v0 S4) (?v1 S4) (?v2 S4)) (=> (not (= ?v0 f105)) (=> (= (f28 (f29 f31 ?v1) ?v0) (f28 (f29 f31 ?v2) ?v0)) (= ?v1 ?v2)))))
(assert (forall ((?v0 S4) (?v1 S6) (?v2 S4)) (= (= (f25 (f26 f27 ?v0) ?v1) (f25 (f26 f27 ?v2) ?v1)) (or (= ?v0 ?v2) (= ?v1 f106)))))
(assert (forall ((?v0 S4) (?v1 S4) (?v2 S4)) (= (= (f28 (f29 f31 ?v0) ?v1) (f28 (f29 f31 ?v2) ?v1)) (or (= ?v0 ?v2) (= ?v1 f105)))))
(assert (forall ((?v0 S4)) (= (f25 (f26 f27 ?v0) f106) f106)))
(assert (forall ((?v0 S4)) (= (f28 (f29 f31 ?v0) f105) f105)))
(assert (forall ((?v0 S4)) (= (f25 (f26 f27 ?v0) f106) f106)))
(assert (forall ((?v0 S4)) (= (f28 (f29 f31 ?v0) f105) f105)))
(assert (forall ((?v0 S4) (?v1 S4) (?v2 S4)) (let ((?v_0 (f29 f31 ?v0))) (=> (not (= ?v0 f105)) (=> (= (f28 ?v_0 ?v1) (f28 ?v_0 ?v2)) (= ?v1 ?v2))))))
(assert (forall ((?v0 S4) (?v1 S6) (?v2 S6)) (let ((?v_0 (f26 f27 ?v0))) (=> (not (= ?v0 f105)) (=> (= (f25 ?v_0 ?v1) (f25 ?v_0 ?v2)) (= ?v1 ?v2))))))
(assert (forall ((?v0 S4) (?v1 S4) (?v2 S4)) (let ((?v_0 (f29 f31 ?v0))) (= (= (f28 ?v_0 ?v1) (f28 ?v_0 ?v2)) (or (= ?v1 ?v2) (= ?v0 f105))))))
(assert (forall ((?v0 S4) (?v1 S6) (?v2 S6)) (let ((?v_0 (f26 f27 ?v0))) (= (= (f25 ?v_0 ?v1) (f25 ?v_0 ?v2)) (or (= ?v1 ?v2) (= ?v0 f105))))))
(assert (forall ((?v0 S6)) (= (= (f89 (f5 f90 ?v0) f105) f1) (= ?v0 f106))))
(assert (forall ((?v0 S4)) (= (= (f89 (f28 f107 ?v0) f105) f1) (= ?v0 f105))))
(assert (forall ((?v0 S14) (?v1 S6)) (=> (= (f95 ?v0) f1) (= (f22 (f23 ?v0 ?v1) f105) f106))))
(assert (forall ((?v0 S18) (?v1 S4)) (=> (= (f96 ?v0) f1) (= (f28 (f29 ?v0 ?v1) f105) f105))))
(assert (forall ((?v0 S16) (?v1 S4)) (=> (= (f97 ?v0) f1) (= (f25 (f26 ?v0 ?v1) f106) f106))))
(assert (forall ((?v0 S14) (?v1 S4)) (=> (= (f95 ?v0) f1) (= (f22 (f23 ?v0 f106) ?v1) f106))))
(assert (forall ((?v0 S18) (?v1 S4)) (=> (= (f96 ?v0) f1) (= (f28 (f29 ?v0 f105) ?v1) f105))))
(assert (forall ((?v0 S16) (?v1 S6)) (=> (= (f97 ?v0) f1) (= (f25 (f26 ?v0 f105) ?v1) f106))))
(assert (forall ((?v0 S4)) (= (f5 f6 (f22 f34 ?v0)) f105)))
(assert (forall ((?v0 S6)) (= (f89 f105 (f5 f90 ?v0)) f1)))
(assert (forall ((?v0 S4)) (= (f89 f105 (f28 f107 ?v0)) f1)))
(assert (forall ((?v0 S8) (?v1 S2)) (=> (= (f86 ?v0) f1) (= (f98 (f99 ?v1) (f9 ?v0 ?v1)) f1))))
(assert (forall ((?v0 S2) (?v1 S2)) (=> (=> (= (f98 (f99 ?v0) ?v1) f1) false) (=> (=> (= (f98 (f99 ?v1) ?v0) f1) false) false))))
(assert (forall ((?v0 S4) (?v1 S4)) (=> (=> (= (f89 ?v0 ?v1) f1) false) (=> (=> (= (f89 ?v1 ?v0) f1) false) false))))
(assert (forall ((?v0 S2) (?v1 S2) (?v2 S2)) (let ((?v_0 (f99 ?v2))) (=> (= (f98 (f99 ?v0) ?v1) f1) (=> (= (f98 ?v_0 ?v0) f1) (= (f98 ?v_0 ?v1) f1))))))
(assert (forall ((?v0 S4) (?v1 S4) (?v2 S4)) (=> (= (f89 ?v0 ?v1) f1) (=> (= (f89 ?v2 ?v0) f1) (= (f89 ?v2 ?v1) f1)))))
(assert (forall ((?v0 S2) (?v1 S2)) (=> (= (f98 (f99 ?v0) ?v1) f1) (=> (= (f98 (f99 ?v1) ?v0) f1) (= ?v1 ?v0)))))
(assert (forall ((?v0 S4) (?v1 S4)) (=> (= (f89 ?v0 ?v1) f1) (=> (= (f89 ?v1 ?v0) f1) (= ?v1 ?v0)))))
(assert (forall ((?v0 S2) (?v1 S2) (?v2 S2)) (let ((?v_0 (f99 ?v0))) (=> (= (f98 ?v_0 ?v1) f1) (=> (= (f98 (f99 ?v1) ?v2) f1) (= (f98 ?v_0 ?v2) f1))))))
(assert (forall ((?v0 S4) (?v1 S4) (?v2 S4)) (=> (= (f89 ?v0 ?v1) f1) (=> (= (f89 ?v1 ?v2) f1) (= (f89 ?v0 ?v2) f1)))))
(assert (forall ((?v0 S2) (?v1 S2)) (=> (= (f98 (f99 ?v0) ?v1) f1) (=> (= (f98 (f99 ?v1) ?v0) f1) (= ?v0 ?v1)))))
(assert (forall ((?v0 S4) (?v1 S4)) (=> (= (f89 ?v0 ?v1) f1) (=> (= (f89 ?v1 ?v0) f1) (= ?v0 ?v1)))))
(assert (forall ((?v0 S2) (?v1 S2) (?v2 S2)) (=> (= (f98 (f99 ?v0) ?v1) f1) (=> (= ?v0 ?v2) (= (f98 (f99 ?v2) ?v1) f1)))))
(assert (forall ((?v0 S4) (?v1 S4) (?v2 S4)) (=> (= (f89 ?v0 ?v1) f1) (=> (= ?v0 ?v2) (= (f89 ?v2 ?v1) f1)))))
(assert (forall ((?v0 S2) (?v1 S2) (?v2 S2)) (let ((?v_0 (f99 ?v0))) (=> (= (f98 ?v_0 ?v1) f1) (=> (= ?v1 ?v2) (= (f98 ?v_0 ?v2) f1))))))
(assert (forall ((?v0 S4) (?v1 S4) (?v2 S4)) (=> (= (f89 ?v0 ?v1) f1) (=> (= ?v1 ?v2) (= (f89 ?v0 ?v2) f1)))))
(assert (forall ((?v0 S2) (?v1 S2) (?v2 S2)) (let ((?v_0 (f99 ?v2))) (=> (= ?v0 ?v1) (=> (= (f98 ?v_0 ?v1) f1) (= (f98 ?v_0 ?v0) f1))))))
(assert (forall ((?v0 S4) (?v1 S4) (?v2 S4)) (=> (= ?v0 ?v1) (=> (= (f89 ?v2 ?v1) f1) (= (f89 ?v2 ?v0) f1)))))
(assert (forall ((?v0 S2) (?v1 S2) (?v2 S2)) (=> (= ?v0 ?v1) (=> (= (f98 (f99 ?v1) ?v2) f1) (= (f98 (f99 ?v0) ?v2) f1)))))
(assert (forall ((?v0 S4) (?v1 S4) (?v2 S4)) (=> (= ?v0 ?v1) (=> (= (f89 ?v1 ?v2) f1) (= (f89 ?v0 ?v2) f1)))))
(assert (forall ((?v0 S2) (?v1 S2)) (=> (= (f98 (f99 ?v0) ?v1) f1) (= (= (f98 (f99 ?v1) ?v0) f1) (= ?v1 ?v0)))))
(assert (forall ((?v0 S4) (?v1 S4)) (=> (= (f89 ?v0 ?v1) f1) (= (= (f89 ?v1 ?v0) f1) (= ?v1 ?v0)))))
(assert (forall ((?v0 S2) (?v1 S2)) (=> (= ?v0 ?v1) (= (f98 (f99 ?v0) ?v1) f1))))
(assert (forall ((?v0 S4) (?v1 S4)) (=> (= ?v0 ?v1) (= (f89 ?v0 ?v1) f1))))
(assert (forall ((?v0 S2) (?v1 S2)) (= (= ?v0 ?v1) (and (= (f98 (f99 ?v0) ?v1) f1) (= (f98 (f99 ?v1) ?v0) f1)))))
(assert (forall ((?v0 S4) (?v1 S4)) (= (= ?v0 ?v1) (and (= (f89 ?v0 ?v1) f1) (= (f89 ?v1 ?v0) f1)))))
(assert (forall ((?v0 S2) (?v1 S2)) (or (= (f98 (f99 ?v0) ?v1) f1) (= (f98 (f99 ?v1) ?v0) f1))))
(assert (forall ((?v0 S4) (?v1 S4)) (or (= (f89 ?v0 ?v1) f1) (= (f89 ?v1 ?v0) f1))))
(assert (forall ((?v0 S4) (?v1 S4) (?v2 S4)) (let ((?v_0 (f29 f31 ?v0))) (= (f28 (f29 f31 (f28 ?v_0 ?v1)) ?v2) (f28 ?v_0 (f28 (f29 f31 ?v1) ?v2))))))
(assert (forall ((?v0 S4) (?v1 S4) (?v2 S6)) (= (f25 (f26 f27 (f28 (f29 f31 ?v0) ?v1)) ?v2) (f25 (f26 f27 ?v0) (f25 (f26 f27 ?v1) ?v2)))))
(assert (forall ((?v0 S4) (?v1 S4) (?v2 S4)) (let ((?v_0 (f29 f31 ?v0))) (= (f28 (f29 f31 (f28 ?v_0 ?v1)) ?v2) (f28 ?v_0 (f28 (f29 f31 ?v1) ?v2))))))
(assert (forall ((?v0 S4) (?v1 S4) (?v2 S6)) (= (f25 (f26 f27 (f28 (f29 f31 ?v0) ?v1)) ?v2) (f25 (f26 f27 ?v0) (f25 (f26 f27 ?v1) ?v2)))))
(assert (forall ((?v0 S4) (?v1 S4) (?v2 S4)) (let ((?v_1 (f29 f31 ?v0)) (?v_0 (f29 f31 ?v1))) (= (f28 ?v_1 (f28 ?v_0 ?v2)) (f28 ?v_0 (f28 ?v_1 ?v2))))))
(assert (forall ((?v0 S4) (?v1 S4) (?v2 S6)) (let ((?v_1 (f26 f27 ?v0)) (?v_0 (f26 f27 ?v1))) (= (f25 ?v_1 (f25 ?v_0 ?v2)) (f25 ?v_0 (f25 ?v_1 ?v2))))))
(assert (forall ((?v0 S4) (?v1 S4) (?v2 S4)) (let ((?v_1 (f29 f31 ?v0)) (?v_0 (f29 f31 ?v1))) (= (f28 ?v_1 (f28 ?v_0 ?v2)) (f28 ?v_0 (f28 ?v_1 ?v2))))))
(assert (forall ((?v0 S4) (?v1 S4) (?v2 S6)) (let ((?v_1 (f26 f27 ?v0)) (?v_0 (f26 f27 ?v1))) (= (f25 ?v_1 (f25 ?v_0 ?v2)) (f25 ?v_0 (f25 ?v_1 ?v2))))))
(assert (forall ((?v0 S4) (?v1 S4) (?v2 S4)) (let ((?v_1 (f29 f31 ?v0)) (?v_0 (f29 f31 ?v1))) (= (f28 ?v_1 (f28 ?v_0 ?v2)) (f28 ?v_0 (f28 ?v_1 ?v2))))))
(assert (forall ((?v0 S4) (?v1 S4) (?v2 S6)) (let ((?v_1 (f26 f27 ?v0)) (?v_0 (f26 f27 ?v1))) (= (f25 ?v_1 (f25 ?v_0 ?v2)) (f25 ?v_0 (f25 ?v_1 ?v2))))))
(assert (forall ((?v0 S4) (?v1 S4)) (= (= (f22 f34 ?v0) (f22 f34 ?v1)) (= ?v0 ?v1))))
(assert (forall ((?v0 S4) (?v1 S4)) (= (= (f28 f37 ?v0) (f28 f37 ?v1)) (= ?v0 ?v1))))
(assert (forall ((?v0 S4)) (= (f94 (f29 f30 ?v0)) f1)))
(assert (forall ((?v0 S6)) (= (f93 (f23 f24 ?v0)) f1)))
(assert (forall ((?v0 S4) (?v1 S4)) (= (f22 f34 (f28 (f29 f31 ?v0) ?v1)) (f25 (f26 f27 ?v0) (f22 f34 ?v1)))))
(assert (forall ((?v0 S4) (?v1 S4)) (let ((?v_0 (f29 f31 ?v0))) (= (f28 f37 (f28 ?v_0 ?v1)) (f28 ?v_0 (f28 f37 ?v1))))))
(assert (forall ((?v0 S18) (?v1 S4) (?v2 S4) (?v3 S4)) (let ((?v_0 (f29 f31 ?v1))) (=> (= (f96 ?v0) f1) (= (f28 (f29 ?v0 (f28 ?v_0 ?v2)) ?v3) (f28 ?v_0 (f28 (f29 ?v0 ?v2) ?v3)))))))
(assert (forall ((?v0 S14) (?v1 S4) (?v2 S6) (?v3 S4)) (let ((?v_0 (f26 f27 ?v1))) (=> (= (f95 ?v0) f1) (= (f22 (f23 ?v0 (f25 ?v_0 ?v2)) ?v3) (f25 ?v_0 (f22 (f23 ?v0 ?v2) ?v3)))))))
(assert (forall ((?v0 S16) (?v1 S4) (?v2 S4) (?v3 S6)) (=> (= (f97 ?v0) f1) (= (f25 (f26 ?v0 (f28 (f29 f31 ?v1) ?v2)) ?v3) (f25 (f26 f27 ?v1) (f25 (f26 ?v0 ?v2) ?v3))))))
(assert (forall ((?v0 S18) (?v1 S4) (?v2 S4) (?v3 S4)) (let ((?v_1 (f29 ?v0 ?v1)) (?v_0 (f29 f31 ?v2))) (=> (= (f96 ?v0) f1) (= (f28 ?v_1 (f28 ?v_0 ?v3)) (f28 ?v_0 (f28 ?v_1 ?v3)))))))
(assert (forall ((?v0 S14) (?v1 S6) (?v2 S4) (?v3 S4)) (let ((?v_0 (f23 ?v0 ?v1))) (=> (= (f95 ?v0) f1) (= (f22 ?v_0 (f28 (f29 f31 ?v2) ?v3)) (f25 (f26 f27 ?v2) (f22 ?v_0 ?v3)))))))
(assert (forall ((?v0 S16) (?v1 S4) (?v2 S4) (?v3 S6)) (let ((?v_1 (f26 ?v0 ?v1)) (?v_0 (f26 f27 ?v2))) (=> (= (f97 ?v0) f1) (= (f25 ?v_1 (f25 ?v_0 ?v3)) (f25 ?v_0 (f25 ?v_1 ?v3)))))))
(assert (forall ((?v0 S2)) (= (f98 (f99 f104) ?v0) f1)))
(assert (forall ((?v0 S2)) (= (= (f98 (f99 f104) ?v0) f1) true)))
(assert (forall ((?v0 S2)) (= (= (f98 (f99 ?v0) f104) f1) (= ?v0 f104))))
(assert (forall ((?v0 S14)) (=> (= (f95 ?v0) f1) (= (f97 (f41 f42 ?v0)) f1))))
(assert (forall ((?v0 S16)) (=> (= (f97 ?v0) f1) (= (f95 (f43 f44 ?v0)) f1))))
(assert (forall ((?v0 S18)) (=> (= (f96 ?v0) f1) (= (f96 (f45 f46 ?v0)) f1))))
(assert (= (f96 f30) f1))
(assert (= (f95 f24) f1))
(assert (forall ((?v0 S4) (?v1 S7) (?v2 S2)) (= (f3 (f18 (f19 f20 (f80 f81 ?v0)) ?v1) ?v2) ?v0)))
(assert (forall ((?v0 S4) (?v1 S8) (?v2 S2)) (= (f3 (f14 (f16 f17 (f55 f82 ?v0)) ?v1) ?v2) ?v0)))
(assert (forall ((?v0 S6) (?v1 S8) (?v2 S2)) (= (f7 (f101 (f102 f103 (f52 f79 ?v0)) ?v1) ?v2) ?v0)))
(assert (forall ((?v0 S2) (?v1 S8) (?v2 S2) (?v3 S2)) (=> (= ?v0 (f9 ?v1 ?v2)) (=> (= (f98 (f99 ?v3) ?v2) f1) (=> (forall ((?v4 S2) (?v5 S2)) (=> (= (f98 (f99 ?v5) ?v4) f1) (= (f98 (f99 (f9 ?v1 ?v5)) (f9 ?v1 ?v4)) f1))) (= (f98 (f99 (f9 ?v1 ?v3)) ?v0) f1))))))
(assert (forall ((?v0 S4) (?v1 S17) (?v2 S4) (?v3 S4)) (=> (= ?v0 (f28 ?v1 ?v2)) (=> (= (f89 ?v3 ?v2) f1) (=> (forall ((?v4 S4) (?v5 S4)) (=> (= (f89 ?v5 ?v4) f1) (= (f89 (f28 ?v1 ?v5) (f28 ?v1 ?v4)) f1))) (= (f89 (f28 ?v1 ?v3) ?v0) f1))))))
(assert (= (f5 f13 f106) f105))
(assert (= (f5 f6 f106) f105))
(assert (forall ((?v0 S2) (?v1 S2)) (=> (= (f98 (f99 ?v0) ?v1) f1) (=> (= (f98 (f99 ?v1) ?v0) f1) (= ?v0 ?v1)))))
(assert (forall ((?v0 S2) (?v1 S2) (?v2 S2)) (let ((?v_0 (f99 ?v0))) (=> (= (f98 ?v_0 ?v1) f1) (=> (= (f98 (f99 ?v1) ?v2) f1) (= (f98 ?v_0 ?v2) f1))))))
(assert (forall ((?v0 S2) (?v1 S2)) (=> (= ?v0 ?v1) (= (f98 (f99 ?v0) ?v1) f1))))
(assert (forall ((?v0 S2) (?v1 S2)) (or (= (f98 (f99 ?v0) ?v1) f1) (= (f98 (f99 ?v1) ?v0) f1))))
(assert (forall ((?v0 S2)) (= (f98 (f99 ?v0) ?v0) f1)))
(assert (forall ((?v0 S5) (?v1 S7) (?v2 S3) (?v3 S2)) (=> (= (f18 (f19 f20 ?v0) ?v1) ?v2) (= (f5 ?v0 (f7 ?v1 ?v3)) (f3 ?v2 ?v3)))))
(assert (forall ((?v0 S3) (?v1 S8) (?v2 S3) (?v3 S2)) (=> (= (f14 (f16 f17 ?v0) ?v1) ?v2) (= (f3 ?v0 (f9 ?v1 ?v3)) (f3 ?v2 ?v3)))))
(assert (forall ((?v0 S7) (?v1 S8) (?v2 S7) (?v3 S2)) (=> (= (f101 (f102 f103 ?v0) ?v1) ?v2) (= (f7 ?v0 (f9 ?v1 ?v3)) (f7 ?v2 ?v3)))))
(assert (forall ((?v0 S2) (?v1 S2) (?v2 S8) (?v3 S2)) (=> (= (f98 (f99 ?v0) ?v1) f1) (=> (= (f9 ?v2 ?v0) ?v3) (=> (forall ((?v4 S2) (?v5 S2)) (=> (= (f98 (f99 ?v5) ?v4) f1) (= (f98 (f99 (f9 ?v2 ?v5)) (f9 ?v2 ?v4)) f1))) (= (f98 (f99 ?v3) (f9 ?v2 ?v1)) f1))))))
(assert (forall ((?v0 S4) (?v1 S4) (?v2 S17) (?v3 S4)) (=> (= (f89 ?v0 ?v1) f1) (=> (= (f28 ?v2 ?v0) ?v3) (=> (forall ((?v4 S4) (?v5 S4)) (=> (= (f89 ?v5 ?v4) f1) (= (f89 (f28 ?v2 ?v5) (f28 ?v2 ?v4)) f1))) (= (f89 ?v3 (f28 ?v2 ?v1)) f1))))))
(assert (forall ((?v0 S3) (?v1 S8)) (=> (= (f108 ?v0) f1) (=> (= (f86 ?v1) f1) (= (f108 (f14 (f16 f17 ?v0) ?v1)) f1)))))
(assert (forall ((?v0 S7) (?v1 S8)) (=> (= (f109 ?v0) f1) (=> (= (f86 ?v1) f1) (= (f109 (f101 (f102 f103 ?v0) ?v1)) f1)))))
(assert (forall ((?v0 S8) (?v1 S2) (?v2 S2)) (=> (= (f110 ?v0) f1) (=> (= (f98 (f99 ?v1) ?v2) f1) (= (f98 (f99 (f9 ?v0 ?v2)) (f9 ?v0 ?v1)) f1)))))
(assert (forall ((?v0 S3) (?v1 S2) (?v2 S2)) (=> (= (f111 ?v0) f1) (=> (= (f98 (f99 ?v1) ?v2) f1) (= (f89 (f3 ?v0 ?v2) (f3 ?v0 ?v1)) f1)))))
(assert (forall ((?v0 S8)) (= (= (f110 ?v0) f1) (forall ((?v1 S2) (?v2 S2)) (=> (= (f98 (f99 ?v1) ?v2) f1) (= (f98 (f99 (f9 ?v0 ?v2)) (f9 ?v0 ?v1)) f1))))))
(assert (forall ((?v0 S3)) (= (= (f111 ?v0) f1) (forall ((?v1 S2) (?v2 S2)) (=> (= (f98 (f99 ?v1) ?v2) f1) (= (f89 (f3 ?v0 ?v2) (f3 ?v0 ?v1)) f1))))))
(assert (forall ((?v0 S2)) (= (f110 (f83 f84 ?v0)) f1)))
(assert (forall ((?v0 S4)) (= (f111 (f55 f82 ?v0)) f1)))
(assert (forall ((?v0 S7)) (=> (= (f109 ?v0) f1) (= (f108 (f18 f39 ?v0)) f1))))
(assert (forall ((?v0 S7)) (=> (= (f109 ?v0) f1) (= (f108 (f18 f38 ?v0)) f1))))
(assert (forall ((?v0 S3)) (=> (= (f85 ?v0) f1) (= (f108 ?v0) f1))))
(assert (forall ((?v0 S7)) (=> (= (f88 ?v0) f1) (= (f109 ?v0) f1))))
(assert (forall ((?v0 S3)) (=> (= (f108 ?v0) f1) (= (f85 ?v0) f1))))
(assert (forall ((?v0 S7)) (=> (= (f109 ?v0) f1) (= (f88 ?v0) f1))))
(assert (forall ((?v0 S3)) (= (= (f108 ?v0) f1) (= (f85 ?v0) f1))))
(assert (forall ((?v0 S7)) (= (= (f109 ?v0) f1) (= (f88 ?v0) f1))))
(assert (forall ((?v0 S3)) (=> (= (f108 ?v0) f1) (= (f85 ?v0) f1))))
(assert (forall ((?v0 S3)) (=> (= (f111 ?v0) f1) (= (f87 ?v0) f1))))
(assert (forall ((?v0 S8)) (=> (= (f110 ?v0) f1) (= (f100 ?v0) f1))))
(assert (forall ((?v0 S17) (?v1 S3)) (=> (= (f94 ?v0) f1) (=> (= (f108 ?v1) f1) (= (f108 (f35 (f66 f67 ?v0) ?v1)) f1)))))
(assert (forall ((?v0 S15) (?v1 S7)) (=> (= (f92 ?v0) f1) (=> (= (f109 ?v1) f1) (= (f109 (f47 (f62 f63 ?v0) ?v1)) f1)))))
(assert (forall ((?v0 S13) (?v1 S3)) (=> (= (f93 ?v0) f1) (=> (= (f108 ?v1) f1) (= (f109 (f32 (f64 f65 ?v0) ?v1)) f1)))))
(assert (forall ((?v0 S3)) (=> (= (f108 ?v0) f1) (= (f108 (f35 f36 ?v0)) f1))))
(assert (forall ((?v0 S3)) (=> (= (f108 ?v0) f1) (= (f109 (f32 f33 ?v0)) f1))))
(assert (forall ((?v0 S3) (?v1 S4)) (=> (= (f108 ?v0) f1) (= (f108 (f55 (f56 f61 ?v0) ?v1)) f1))))
(assert (forall ((?v0 S7) (?v1 S4)) (=> (= (f109 ?v0) f1) (= (f109 (f58 (f59 f60 ?v0) ?v1)) f1))))
(assert (forall ((?v0 S3) (?v1 S4)) (=> (= (f108 ?v0) f1) (= (f108 (f55 (f56 f57 ?v0) ?v1)) f1))))
(assert (forall ((?v0 S3) (?v1 S6)) (=> (= (f108 ?v0) f1) (= (f109 (f52 (f53 f54 ?v0) ?v1)) f1))))
(assert (forall ((?v0 S3)) (= (= (f87 ?v0) f1) (or (= (f112 ?v0) f1) (= (f111 ?v0) f1)))))
(assert (forall ((?v0 S8)) (= (= (f100 ?v0) f1) (or (= (f113 ?v0) f1) (= (f110 ?v0) f1)))))
(assert (forall ((?v0 S8) (?v1 S2) (?v2 S2)) (=> (= (f113 ?v0) f1) (=> (= (f98 (f99 ?v1) ?v2) f1) (= (f98 (f99 (f9 ?v0 ?v1)) (f9 ?v0 ?v2)) f1)))))
(assert (forall ((?v0 S3) (?v1 S2) (?v2 S2)) (=> (= (f112 ?v0) f1) (=> (= (f98 (f99 ?v1) ?v2) f1) (= (f89 (f3 ?v0 ?v1) (f3 ?v0 ?v2)) f1)))))
(assert (forall ((?v0 S8)) (= (= (f113 ?v0) f1) (forall ((?v1 S2) (?v2 S2)) (=> (= (f98 (f99 ?v1) ?v2) f1) (= (f98 (f99 (f9 ?v0 ?v1)) (f9 ?v0 ?v2)) f1))))))
(assert (forall ((?v0 S3)) (= (= (f112 ?v0) f1) (forall ((?v1 S2) (?v2 S2)) (=> (= (f98 (f99 ?v1) ?v2) f1) (= (f89 (f3 ?v0 ?v1) (f3 ?v0 ?v2)) f1))))))
(check-sat)
(exit)
